\ Model Routes
\ LP format - for model browsing. Use MPS format to capture full model detail.
Maximize
  - 243.9873353028244 R{0,0} + 570.9326552982702 R{0,1}
   + 570.9326552982702 R{0,2} - 249.2301939667805 R{0,3}
   - 334.6437508789439 R{0,4} + 336.0139884829289 R{0,5}
   + 877.3186105036962 R{0,6} + 568.2280287393723 R{0,7}
   + 136.1404226671998 R{0,8} + 595.4253043899857 R{0,9}
   + 701.1429198560793 R{0,10} + 227.0117100192371 R{0,11}
   + 888.6633736610559 R{0,12} + 434.1633846344188 R{0,13}
   + 568.2280287393723 R{0,14} - 127.8343632223156 R{0,15}
   + 211.0245367999643 R{0,16} + 340.8352365042506 R{0,17}
   + 386.7480300719906 R{0,18} - 100.0398729508927 R{0,19}
   - 256.140831891889 R{1,0} + 122.5775147054787 R{1,1}
   + 750.0651913706499 R{1,2} + 1199.697828412296 R{1,3}
   + 164.6997124765637 R{1,4} + 1056.926824102835 R{1,5}
   + 1630.53047370061 R{1,6} + 1407.629076955989 R{1,7}
   + 176.4202707146089 R{1,8} + 176.4202707146089 R{1,9}
   + 795.6670155699595 R{1,10} + 1399.598902091734 R{1,11}
   + 1214.266320461826 R{1,12} + 1049.137642243191 R{1,13}
   + 1620.582986840784 R{1,14} + 1425.486084373062 R{1,15}
   + 862.0699957917122 R{1,16} + 1423.25504031671 R{1,17}
   + 672.7782175370374 R{1,18} + 1331.707456542797 R{1,19}
   + 1423.25504031671 R{1,20} + 466.1512155265586 R{1,21}
   + 1620.582986840784 R{1,22} + 664.7480426727825 R{1,23}
   + 1049.137642243191 R{1,24} + 1754.742005322045 R{1,25}
   + 1298.912396041432 R{1,26} + 1071.131454702767 R{1,27}
   + 965.8443043945192 R{1,28} + 1195.470769908507 R{1,29}
   + 1258.199101154245 R{1,30} + 1198.881248318718 R{2,0}
   + 1198.881248318718 R{2,1} - 278.4443928850388 R{2,2}
   + 318.1212024787993 R{2,3} + 800.7457754041151 R{2,4}
   + 853.4311090312019 R{2,5} + 1223.373897410434 R{2,6}
   + 1462.756221938219 R{2,7} + 1214.287608458526 R{2,8}
   + 688.5552192764683 R{2,9} + 972.0651374481311 R{2,10}
   + 1214.287608458526 R{2,11} + 740.6415139840954 R{2,12}
   + 740.6415139840954 R{2,13} + 846.5776695814457 R{2,14}
   + 740.6415139840954 R{2,15} + 1238.780257550242 R{2,16}
   + 753.1211618113981 R{2,17} + 907.981020581768 R{2,18}
   + 725.2351538442874 R{2,19} + 1461.992995470926 R{2,20}
   + 2724.270092910062 R{2,21} + 1518.987036221143 R{2,22}
   + 725.2351538442874 R{2,23} + 1181.901127867222 R{2,24}
   + 1286.924770194782 R{2,25} - 260.2482995389823 R{3,0}
   + 236.3898281754089 R{3,1} + 944.4359406516141 R{3,2}
   - 21.80387166481478 R{3,3} + 268.4474361126287 R{3,4}
   + 886.4316482370502 R{3,5} + 141.7158004297827 R{3,6}
   - 151.8488345723061 R{3,7} + 924.0956684637451 R{3,8}
   + 268.4474361126287 R{3,9} + 844.1478884133267 R{3,10}
   + 2655.169620874021 R{3,11} + 1193.796384786384 R{3,12}
   + 633.8443606863017 R{3,13} + 695.5374162216065 R{3,14}
   + 807.6860225663549 R{3,15} + 985.7887239990498 R{3,16}
   + 903.5450770089406 R{3,17} + 924.0956684637451 R{3,18}
   + 633.8443606863017 R{3,19} - 242.5208875955131 R{4,0}
   + 1014.107443184683 R{4,1} + 1523.924574514046 R{4,2}
   + 1959.038822222607 R{4,3} + 1168.096876470741 R{4,4}
   + 212.0696624570067 R{4,5} + 1164.977429318338 R{4,6}
   + 1164.977429318338 R{4,7} + 782.8354381183636 R{4,8}
   + 843.1701271070783 R{4,9} + 1174.445352087461 R{4,10}
   + 420.0176167407209 R{4,11} + 212.0696624570067 R{4,12}
   + 805.2790550930981 R{4,13} + 751.2928417211037 R{4,14}
   + 1164.977429318338 R{4,15} + 1562.487663885629 R{4,16}
   + 931.406829189569 R{4,17} + 926.6049210864558 R{4,18}
   + 549.2648379895949 R{4,19} + 1611.106987182087 R{4,20}
   + 1600.37873589961 R{4,21} + 201.5571195106824 R{4,22}
   + 929.7243682388591 R{4,23} + 1052.670532556267 R{4,24}
   + 926.6049210864558 R{4,25} + 1375.959131092737 R{4,26}
   + 609.5995269783095 R{4,27} + 1052.670532556267 R{4,28}
   + 972.4173483559525 R{4,29} + 719.0520687317005 R{4,30}
   + 1193.558966225152 R{4,31} + 1243.182504172769 R{4,32}
   - 231.9775664337766 R{5,0} - 132.7945474830869 R{5,1}
   + 451.6696739061915 R{5,2} - 85.89689922105296 R{5,3}
   - 85.89689922105296 R{5,4} - 132.7945474830869 R{5,5}
   - 85.89689922105296 R{5,6} - 132.7945474830869 R{5,7}
   + 382.3520469410751 R{5,8} - 132.7945474830869 R{5,9}
   - 85.89689922105296 R{5,10} - 132.7945474830869 R{5,11}
   - 132.7945474830869 R{5,12} + 175.0275685583579 R{5,13}
   - 132.7945474830869 R{5,14} - 85.89689922105296 R{5,15}
   + 190.3285967453362 R{5,16} - 132.7945474830869 R{5,17}
   - 85.89689922105296 R{5,18} - 132.7945474830869 R{5,19}
   - 85.89689922105296 R{5,20} + 94.46133969231278 R{5,21}
   + 1560.108075096839 R{5,22} - 85.89689922105296 R{5,23}
   + 383.8588648280695 R{5,24} + 1597.983999587302 R{5,25}
   - 231.1436095783099 R{6,0} + 1194.380449393887 R{6,1}
   + 1928.457712617132 R{6,2} + 2349.61274349011 R{6,3}
   + 1244.784024659674 R{6,4} + 988.8742367114944 R{6,5}
   + 959.8089488319242 R{6,6} + 1264.210173057682 R{6,7}
   + 1127.319851925271 R{6,8} + 1573.868749509667 R{6,9}
   + 1783.156138809844 R{6,10} + 1782.374136499327 R{6,11}
   + 1754.090850930274 R{6,12} + 1753.308848619756 R{6,13}
   + 1097.178981874913 R{6,14} + 1127.319851925271 R{6,15}
   + 1711.690242847286 R{6,16} + 1802.963172812399 R{6,17}
   + 983.5158611565578 R{6,18} + 719.0947162633611 R{6,19}
   + 2071.837482672818 R{6,20} + 333.6395728124788 R{6,21}
   + 1390.523974516404 R{6,22} + 1744.09112189464 R{6,23}
   + 784.5675471279168 R{6,24} + 2062.444050911859 R{6,25}
   + 1715.02583401507 R{6,26} + 1069.667911899672 R{6,27}
   + 1044.851489870184 R{6,28} + 718.3127139528434 R{6,29}
   + 1607.258023739324 R{6,30} + 433.3376381250933 R{6,31}
   + 1425.547848049028 R{6,32} + 718.3127139528434 R{6,33}
   + 866.670514013091 R{6,34} + 1510.2036177009 R{6,35}
   + 1127.319851925271 R{6,36} + 1359.19064248954 R{6,37}
   + 1057.892268827095 R{6,38} + 1201.465315511751 R{6,39}
   + 580.6491010495845 R{6,40} + 1565.640087276407 R{6,41}
   + 1041.384626330619 R{6,42} + 1068.113693995343 R{6,43}
   + 1040.602624020101 R{6,44} + 1052.292195623587 R{6,45}
   + 1754.090850930274 R{6,46} + 836.5588889977641 R{6,47}
   + 1069.667911899672 R{6,48} + 1782.374136499327 R{6,49}
Subject To
 R00: R{0,0} <= 1
 R01: R{0,1} <= 1
 R02: R{0,2} <= 1
 R03: R{0,3} <= 1
 R04: R{0,4} <= 1
 R05: R{0,5} <= 1
 R06: R{0,6} <= 1
 R07: R{0,7} <= 1
 R08: R{0,8} <= 1
 R09: R{0,9} <= 1
 R010: R{0,10} <= 1
 R011: R{0,11} <= 1
 R012: R{0,12} <= 1
 R013: R{0,13} <= 1
 R014: R{0,14} <= 1
 R015: R{0,15} <= 1
 R016: R{0,16} <= 1
 R017: R{0,17} <= 1
 R018: R{0,18} <= 1
 R019: R{0,19} <= 1
 R020: R{1,0} <= 1
 R021: R{1,1} <= 1
 R022: R{1,2} <= 1
 R023: R{1,3} <= 1
 R024: R{1,4} <= 1
 R025: R{1,5} <= 1
 R026: R{1,6} <= 1
 R027: R{1,7} <= 1
 R028: R{1,8} <= 1
 R029: R{1,9} <= 1
 R030: R{1,10} <= 1
 R031: R{1,11} <= 1
 R032: R{1,12} <= 1
 R033: R{1,13} <= 1
 R034: R{1,14} <= 1
 R035: R{1,15} <= 1
 R036: R{1,16} <= 1
 R037: R{1,17} <= 1
 R038: R{1,18} <= 1
 R039: R{1,19} <= 1
 R040: R{1,20} <= 1
 R041: R{1,21} <= 1
 R042: R{1,22} <= 1
 R043: R{1,23} <= 1
 R044: R{1,24} <= 1
 R045: R{1,25} <= 1
 R046: R{1,26} <= 1
 R047: R{1,27} <= 1
 R048: R{1,28} <= 1
 R049: R{1,29} <= 1
 R050: R{1,30} <= 1
 R051: R{2,0} <= 1
 R052: R{2,1} <= 1
 R053: R{2,2} <= 1
 R054: R{2,3} <= 1
 R055: R{2,4} <= 1
 R056: R{2,5} <= 1
 R057: R{2,6} <= 1
 R058: R{2,7} <= 1
 R059: R{2,8} <= 1
 R060: R{2,9} <= 1
 R061: R{2,10} <= 1
 R062: R{2,11} <= 1
 R063: R{2,12} <= 1
 R064: R{2,13} <= 1
 R065: R{2,14} <= 1
 R066: R{2,15} <= 1
 R067: R{2,16} <= 1
 R068: R{2,17} <= 1
 R069: R{2,18} <= 1
 R070: R{2,19} <= 1
 R071: R{2,20} <= 1
 R072: R{2,21} <= 1
 R073: R{2,22} <= 1
 R074: R{2,23} <= 1
 R075: R{2,24} <= 1
 R076: R{2,25} <= 1
 R077: R{3,0} <= 1
 R078: R{3,1} <= 1
 R079: R{3,2} <= 1
 R080: R{3,3} <= 1
 R081: R{3,4} <= 1
 R082: R{3,5} <= 1
 R083: R{3,6} <= 1
 R084: R{3,7} <= 1
 R085: R{3,8} <= 1
 R086: R{3,9} <= 1
 R087: R{3,10} <= 1
 R088: R{3,11} <= 1
 R089: R{3,12} <= 1
 R090: R{3,13} <= 1
 R091: R{3,14} <= 1
 R092: R{3,15} <= 1
 R093: R{3,16} <= 1
 R094: R{3,17} <= 1
 R095: R{3,18} <= 1
 R096: R{3,19} <= 1
 R097: R{4,0} <= 1
 R098: R{4,1} <= 1
 R099: R{4,2} <= 1
 R0100: R{4,3} <= 1
 R0101: R{4,4} <= 1
 R0102: R{4,5} <= 1
 R0103: R{4,6} <= 1
 R0104: R{4,7} <= 1
 R0105: R{4,8} <= 1
 R0106: R{4,9} <= 1
 R0107: R{4,10} <= 1
 R0108: R{4,11} <= 1
 R0109: R{4,12} <= 1
 R0110: R{4,13} <= 1
 R0111: R{4,14} <= 1
 R0112: R{4,15} <= 1
 R0113: R{4,16} <= 1
 R0114: R{4,17} <= 1
 R0115: R{4,18} <= 1
 R0116: R{4,19} <= 1
 R0117: R{4,20} <= 1
 R0118: R{4,21} <= 1
 R0119: R{4,22} <= 1
 R0120: R{4,23} <= 1
 R0121: R{4,24} <= 1
 R0122: R{4,25} <= 1
 R0123: R{4,26} <= 1
 R0124: R{4,27} <= 1
 R0125: R{4,28} <= 1
 R0126: R{4,29} <= 1
 R0127: R{4,30} <= 1
 R0128: R{4,31} <= 1
 R0129: R{4,32} <= 1
 R0130: R{5,0} <= 1
 R0131: R{5,1} <= 1
 R0132: R{5,2} <= 1
 R0133: R{5,3} <= 1
 R0134: R{5,4} <= 1
 R0135: R{5,5} <= 1
 R0136: R{5,6} <= 1
 R0137: R{5,7} <= 1
 R0138: R{5,8} <= 1
 R0139: R{5,9} <= 1
 R0140: R{5,10} <= 1
 R0141: R{5,11} <= 1
 R0142: R{5,12} <= 1
 R0143: R{5,13} <= 1
 R0144: R{5,14} <= 1
 R0145: R{5,15} <= 1
 R0146: R{5,16} <= 1
 R0147: R{5,17} <= 1
 R0148: R{5,18} <= 1
 R0149: R{5,19} <= 1
 R0150: R{5,20} <= 1
 R0151: R{5,21} <= 1
 R0152: R{5,22} <= 1
 R0153: R{5,23} <= 1
 R0154: R{5,24} <= 1
 R0155: R{5,25} <= 1
 R0156: R{6,0} <= 1
 R0157: R{6,1} <= 1
 R0158: R{6,2} <= 1
 R0159: R{6,3} <= 1
 R0160: R{6,4} <= 1
 R0161: R{6,5} <= 1
 R0162: R{6,6} <= 1
 R0163: R{6,7} <= 1
 R0164: R{6,8} <= 1
 R0165: R{6,9} <= 1
 R0166: R{6,10} <= 1
 R0167: R{6,11} <= 1
 R0168: R{6,12} <= 1
 R0169: R{6,13} <= 1
 R0170: R{6,14} <= 1
 R0171: R{6,15} <= 1
 R0172: R{6,16} <= 1
 R0173: R{6,17} <= 1
 R0174: R{6,18} <= 1
 R0175: R{6,19} <= 1
 R0176: R{6,20} <= 1
 R0177: R{6,21} <= 1
 R0178: R{6,22} <= 1
 R0179: R{6,23} <= 1
 R0180: R{6,24} <= 1
 R0181: R{6,25} <= 1
 R0182: R{6,26} <= 1
 R0183: R{6,27} <= 1
 R0184: R{6,28} <= 1
 R0185: R{6,29} <= 1
 R0186: R{6,30} <= 1
 R0187: R{6,31} <= 1
 R0188: R{6,32} <= 1
 R0189: R{6,33} <= 1
 R0190: R{6,34} <= 1
 R0191: R{6,35} <= 1
 R0192: R{6,36} <= 1
 R0193: R{6,37} <= 1
 R0194: R{6,38} <= 1
 R0195: R{6,39} <= 1
 R0196: R{6,40} <= 1
 R0197: R{6,41} <= 1
 R0198: R{6,42} <= 1
 R0199: R{6,43} <= 1
 R0200: R{6,44} <= 1
 R0201: R{6,45} <= 1
 R0202: R{6,46} <= 1
 R0203: R{6,47} <= 1
 R0204: R{6,48} <= 1
 R0205: R{6,49} <= 1
 R1_0: R{0,0} + R{0,1} + R{0,2} + R{0,3} + R{0,4} + R{0,5} + R{0,6}
   + R{0,7} + R{0,8} + R{0,9} + R{0,10} + R{0,11} + R{0,12} + R{0,13}
   + R{0,14} + R{0,15} + R{0,16} + R{0,17} + R{0,18} + R{0,19} <= 1
 R1_1: R{1,0} + R{1,1} + R{1,2} + R{1,3} + R{1,4} + R{1,5} + R{1,6}
   + R{1,7} + R{1,8} + R{1,9} + R{1,10} + R{1,11} + R{1,12} + R{1,13}
   + R{1,14} + R{1,15} + R{1,16} + R{1,17} + R{1,18} + R{1,19} + R{1,20}
   + R{1,21} + R{1,22} + R{1,23} + R{1,24} + R{1,25} + R{1,26} + R{1,27}
   + R{1,28} + R{1,29} + R{1,30} <= 1
 R1_2: R{2,0} + R{2,1} + R{2,2} + R{2,3} + R{2,4} + R{2,5} + R{2,6}
   + R{2,7} + R{2,8} + R{2,9} + R{2,10} + R{2,11} + R{2,12} + R{2,13}
   + R{2,14} + R{2,15} + R{2,16} + R{2,17} + R{2,18} + R{2,19} + R{2,20}
   + R{2,21} + R{2,22} + R{2,23} + R{2,24} + R{2,25} <= 1
 R1_3: R{3,0} + R{3,1} + R{3,2} + R{3,3} + R{3,4} + R{3,5} + R{3,6}
   + R{3,7} + R{3,8} + R{3,9} + R{3,10} + R{3,11} + R{3,12} + R{3,13}
   + R{3,14} + R{3,15} + R{3,16} + R{3,17} + R{3,18} + R{3,19} <= 1
 R1_4: R{4,0} + R{4,1} + R{4,2} + R{4,3} + R{4,4} + R{4,5} + R{4,6}
   + R{4,7} + R{4,8} + R{4,9} + R{4,10} + R{4,11} + R{4,12} + R{4,13}
   + R{4,14} + R{4,15} + R{4,16} + R{4,17} + R{4,18} + R{4,19} + R{4,20}
   + R{4,21} + R{4,22} + R{4,23} + R{4,24} + R{4,25} + R{4,26} + R{4,27}
   + R{4,28} + R{4,29} + R{4,30} + R{4,31} + R{4,32} <= 1
 R1_5: R{5,0} + R{5,1} + R{5,2} + R{5,3} + R{5,4} + R{5,5} + R{5,6}
   + R{5,7} + R{5,8} + R{5,9} + R{5,10} + R{5,11} + R{5,12} + R{5,13}
   + R{5,14} + R{5,15} + R{5,16} + R{5,17} + R{5,18} + R{5,19} + R{5,20}
   + R{5,21} + R{5,22} + R{5,23} + R{5,24} + R{5,25} <= 1
 R1_6: R{6,0} + R{6,1} + R{6,2} + R{6,3} + R{6,4} + R{6,5} + R{6,6}
   + R{6,7} + R{6,8} + R{6,9} + R{6,10} + R{6,11} + R{6,12} + R{6,13}
   + R{6,14} + R{6,15} + R{6,16} + R{6,17} + R{6,18} + R{6,19} + R{6,20}
   + R{6,21} + R{6,22} + R{6,23} + R{6,24} + R{6,25} + R{6,26} + R{6,27}
   + R{6,28} + R{6,29} + R{6,30} + R{6,31} + R{6,32} + R{6,33} + R{6,34}
   + R{6,35} + R{6,36} + R{6,37} + R{6,38} + R{6,39} + R{6,40} + R{6,41}
   + R{6,42} + R{6,43} + R{6,44} + R{6,45} + R{6,46} + R{6,47} + R{6,48}
   + R{6,49} <= 1
 R2_0: <= 0
 R2_1: 10 R{0,10} + 10 R{3,1} + 10 R{3,2} + 10 R{3,4} + 10 R{3,5}
   + 10 R{3,6} + 10 R{3,8} + 10 R{3,9} + 10 R{3,10} + 10 R{3,11}
   + 10 R{3,12} + 10 R{3,16} + 10 R{3,18} + 10 R{5,16} + 10 R{5,21}
   + 10 R{6,20} + 10 R{6,25} <= 10
 R2_2: <= 0
 R2_3: 4 R{1,25} + 4 R{2,3} + 4 R{2,4} + 4 R{2,5} + 4 R{2,14} + 4 R{2,17}
   <= 4
 R2_4: <= 0
 R2_5: 5 R{0,4} + 5 R{0,5} + 5 R{5,3} + 5 R{5,4} + 5 R{5,6} + 5 R{5,8}
   + 5 R{5,10} + 5 R{5,13} + 5 R{5,15} + 5 R{5,16} + 5 R{5,18} + 5 R{5,20}
   + 5 R{5,22} + 5 R{5,23} + 5 R{5,24} + 5 R{5,25} <= 5
 R2_6: 10 R{5,13} + 10 R{6,1} + 10 R{6,2} + 10 R{6,3} + 10 R{6,4}
   + 10 R{6,8} + 10 R{6,9} + 10 R{6,10} + 10 R{6,11} + 10 R{6,12}
   + 10 R{6,13} + 10 R{6,15} + 10 R{6,16} + 10 R{6,17} + 10 R{6,19}
   + 10 R{6,20} + 10 R{6,22} + 10 R{6,25} + 10 R{6,27} + 10 R{6,29}
   + 10 R{6,30} + 10 R{6,32} + 10 R{6,33} + 10 R{6,35} + 10 R{6,36}
   + 10 R{6,37} + 10 R{6,41} + 10 R{6,42} + 10 R{6,44} + 10 R{6,46}
   + 10 R{6,47} + 10 R{6,48} + 10 R{6,49} <= 10
 R2_7: 6 R{1,1} + 6 R{1,4} + 6 R{1,8} + 6 R{1,9} <= 6
 R2_8: <= 0
 R2_9: 12 R{4,1} + 12 R{4,2} + 12 R{4,3} + 12 R{4,4} + 12 R{4,6}
   + 12 R{4,7} + 12 R{4,8} + 12 R{4,9} + 12 R{4,10} + 12 R{4,11}
   + 12 R{4,13} + 12 R{4,14} + 12 R{4,15} + 12 R{4,16} + 12 R{4,17}
   + 12 R{4,18} + 12 R{4,19} + 12 R{4,20} + 12 R{4,21} + 12 R{4,22}
   + 12 R{4,23} + 12 R{4,24} + 12 R{4,25} + 12 R{4,26} + 12 R{4,27}
   + 12 R{4,28} + 12 R{4,29} + 12 R{4,30} + 12 R{4,31} + 12 R{4,32} <= 12
 R2_10: 8 R{0,8} + 8 R{0,9} + 8 R{2,6} + 8 R{2,10} + 8 R{2,16} + 8 R{2,18}
   + 8 R{2,25} + 8 R{6,1} + 8 R{6,2} + 8 R{6,4} + 8 R{6,5} + 8 R{6,8}
   + 8 R{6,9} + 8 R{6,10} + 8 R{6,11} + 8 R{6,14} + 8 R{6,15} + 8 R{6,16}
   + 8 R{6,17} + 8 R{6,19} + 8 R{6,22} + 8 R{6,23} + 8 R{6,27} + 8 R{6,29}
   + 8 R{6,30} + 8 R{6,32} + 8 R{6,33} + 8 R{6,34} + 8 R{6,36} + 8 R{6,37}
   + 8 R{6,40} + 8 R{6,41} + 8 R{6,47} + 8 R{6,48} + 8 R{6,49} <= 8
 R2_11: <= 0
 R2_12: <= 0
 R2_13: <= 0
 R2_14: <= 0
 R2_15: <= 11
 R2_16: 5 R{2,20} + 5 R{3,11} + 5 R{5,22} + 5 R{5,25} <= 5
 R2_17: 11 R{1,6} + 11 R{1,14} + 11 R{1,15} + 11 R{1,17} + 11 R{1,19}
   + 11 R{1,20} + 11 R{1,22} + 11 R{1,25} + 11 R{1,27} + 11 R{1,30} <= 11
 R2_18: <= 0
 R2_19: 11 R{1,6} + 11 R{1,14} + 11 R{1,17} + 11 R{1,20} + 11 R{1,22}
   + 11 R{1,25} + 11 R{2,21} + 11 R{4,1} + 11 R{4,2} + 11 R{4,3}
   + 11 R{4,4} + 11 R{4,6} + 11 R{4,7} + 11 R{4,8} + 11 R{4,10}
   + 11 R{4,14} + 11 R{4,15} + 11 R{4,16} + 11 R{4,17} + 11 R{4,18}
   + 11 R{4,19} + 11 R{4,20} + 11 R{4,21} + 11 R{4,23} + 11 R{4,24}
   + 11 R{4,25} + 11 R{4,26} + 11 R{4,28} + 11 R{4,29} + 11 R{4,31}
   + 11 R{4,32} + 11 R{5,22} + 11 R{5,25} <= 11
 R2_20: 13 R{0,6} + 13 R{0,12} + 13 R{0,16} + 13 R{2,5} + 13 R{5,8}
   + 13 R{5,24} + 13 R{6,7} + 13 R{6,18} + 13 R{6,34} <= 13
 R2_21: <= 0
 R2_22: <= 0
 R2_23: 14 R{0,1} + 14 R{0,2} + 14 R{0,7} + 14 R{0,9} + 14 R{0,11}
   + 14 R{0,14} + 14 R{2,0} + 14 R{2,1} + 14 R{2,6} + 14 R{2,7} + 14 R{2,8}
   + 14 R{2,9} + 14 R{2,10} + 14 R{2,11} + 14 R{2,16} + 14 R{2,18}
   + 14 R{2,20} + 14 R{2,21} + 14 R{2,22} + 14 R{2,24} + 14 R{2,25}
   + 14 R{6,3} <= 14
 R2_24: <= 10
 R2_25: 13 R{2,21} + 13 R{3,11} + 13 R{4,1} + 13 R{4,2} + 13 R{4,3}
   + 13 R{4,4} + 13 R{4,6} + 13 R{4,7} + 13 R{4,8} + 13 R{4,9} + 13 R{4,10}
   + 13 R{4,11} + 13 R{4,13} + 13 R{4,14} + 13 R{4,15} + 13 R{4,16}
   + 13 R{4,18} + 13 R{4,20} + 13 R{4,21} + 13 R{4,22} + 13 R{4,23}
   + 13 R{4,24} + 13 R{4,25} + 13 R{4,28} + 13 R{4,30} + 13 R{4,32} <= 13
 R2_26: 6 R{1,1} + 6 R{1,2} + 6 R{1,3} + 6 R{1,4} + 6 R{1,5} + 6 R{1,6}
   + 6 R{1,7} + 6 R{1,8} + 6 R{1,9} + 6 R{1,10} + 6 R{1,11} + 6 R{1,12}
   + 6 R{1,13} + 6 R{1,14} + 6 R{1,15} + 6 R{1,18} + 6 R{1,19} + 6 R{1,22}
   + 6 R{1,23} + 6 R{1,24} + 6 R{1,25} + 6 R{1,26} + 6 R{1,28} + 6 R{1,29}
   + 6 R{1,30} <= 6
 R2_27: 5 R{1,3} + 5 R{1,5} + 5 R{1,6} + 5 R{1,7} + 5 R{1,11} + 5 R{1,12}
   + 5 R{1,13} + 5 R{1,14} + 5 R{1,15} + 5 R{1,16} + 5 R{1,17} + 5 R{1,18}
   + 5 R{1,19} + 5 R{1,20} + 5 R{1,22} + 5 R{1,23} + 5 R{1,24} + 5 R{1,25}
   + 5 R{1,27} + 5 R{1,28} + 5 R{1,30} + 5 R{2,21} + 5 R{3,11} + 5 R{4,20}
   + 5 R{4,26} + 5 R{6,1} + 5 R{6,2} + 5 R{6,3} + 5 R{6,4} + 5 R{6,5}
   + 5 R{6,6} + 5 R{6,7} + 5 R{6,8} + 5 R{6,9} + 5 R{6,10} + 5 R{6,11}
   + 5 R{6,12} + 5 R{6,13} + 5 R{6,15} + 5 R{6,17} + 5 R{6,20} + 5 R{6,22}
   + 5 R{6,23} + 5 R{6,24} + 5 R{6,25} + 5 R{6,26} + 5 R{6,27} + 5 R{6,30}
   + 5 R{6,32} + 5 R{6,35} + 5 R{6,36} + 5 R{6,38} + 5 R{6,41} + 5 R{6,42}
   + 5 R{6,44} + 5 R{6,46} + 5 R{6,48} + 5 R{6,49} <= 5
 R2_28: <= 0
 R2_29: <= 0
 R2_30: <= 0
 R2_31: <= 0
 R2_32: <= 7
 R2_33: 12 R{5,22} + 12 R{5,25} <= 12
 R2_34: 5 R{1,29} + 5 R{2,21} + 5 R{2,22} + 5 R{2,24} + 5 R{3,11}
   + 5 R{4,31} <= 5
 R2_35: 13 R{2,18} + 13 R{2,22} + 13 R{2,24} + 13 R{2,25} + 13 R{5,22}
   + 13 R{5,25} + 13 R{6,7} + 13 R{6,28} + 13 R{6,38} <= 13
 R2_36: <= 0
 R2_37: 5 R{3,1} + 5 R{3,2} + 5 R{3,3} + 5 R{3,4} + 5 R{3,5} + 5 R{3,6}
   + 5 R{3,8} + 5 R{3,9} + 5 R{3,10} + 5 R{3,11} + 5 R{3,12} + 5 R{3,13}
   + 5 R{3,14} + 5 R{3,15} + 5 R{3,16} + 5 R{3,17} + 5 R{3,18} + 5 R{3,19}
   <= 5
 R2_38: <= 0
 R2_39: <= 0
 R2_40: 15 R{2,3} + 15 R{2,5} + 15 R{2,21} <= 15
 R2_41: <= 5
 R2_42: 4 R{2,3} + 4 R{2,4} + 4 R{2,5} + 4 R{2,14} <= 4
 R2_43: <= 0
 R2_44: <= 0
 R2_45: <= 0
 R2_46: <= 9
 R2_47: 7 R{5,1} + 7 R{5,2} + 7 R{5,3} + 7 R{5,4} + 7 R{5,5} + 7 R{5,6}
   + 7 R{5,7} + 7 R{5,8} + 7 R{5,9} + 7 R{5,10} + 7 R{5,11} + 7 R{5,12}
   + 7 R{5,13} + 7 R{5,14} + 7 R{5,15} + 7 R{5,16} + 7 R{5,17} + 7 R{5,18}
   + 7 R{5,19} + 7 R{5,20} + 7 R{5,22} + 7 R{5,23} + 7 R{5,24} + 7 R{5,25}
   <= 7
 R2_48: 4 R{0,19} + 4 R{4,1} + 4 R{4,2} + 4 R{4,3} + 4 R{4,4} + 4 R{4,6}
   + 4 R{4,7} + 4 R{4,8} + 4 R{4,9} + 4 R{4,10} + 4 R{4,11} + 4 R{4,13}
   + 4 R{4,14} + 4 R{4,15} + 4 R{4,16} + 4 R{4,17} + 4 R{4,18} + 4 R{4,19}
   + 4 R{4,20} + 4 R{4,21} + 4 R{4,23} + 4 R{4,24} + 4 R{4,25} + 4 R{4,26}
   + 4 R{4,27} + 4 R{4,28} + 4 R{4,29} + 4 R{4,30} + 4 R{4,31} + 4 R{4,32}
   <= 4
 R2_49: <= 0
 R2_50: <= 0
 R2_51: 11 R{4,1} + 11 R{4,24} + 11 R{4,28} + 11 R{4,30} <= 11
 R2_52: 10 R{4,5} + 10 R{4,12} <= 10
 R2_53: 13 R{4,1} + 13 R{4,2} + 13 R{4,3} + 13 R{4,16} + 13 R{4,18}
   + 13 R{4,21} + 13 R{4,23} + 13 R{4,24} + 13 R{4,25} + 13 R{4,28}
   + 13 R{4,30} <= 13
 R2_54: 9 R{3,1} + 9 R{3,2} + 9 R{3,3} + 9 R{3,4} + 9 R{3,5} + 9 R{3,7}
   + 9 R{3,8} + 9 R{3,9} + 9 R{3,11} + 9 R{3,12} + 9 R{3,13} + 9 R{3,14}
   + 9 R{3,15} + 9 R{3,16} + 9 R{3,17} + 9 R{3,18} + 9 R{3,19} <= 9
 R2_55: 8 R{6,1} + 8 R{6,2} + 8 R{6,3} + 8 R{6,4} + 8 R{6,5} + 8 R{6,6}
   + 8 R{6,7} + 8 R{6,8} + 8 R{6,9} + 8 R{6,10} + 8 R{6,11} + 8 R{6,12}
   + 8 R{6,13} + 8 R{6,14} + 8 R{6,15} + 8 R{6,16} + 8 R{6,17} + 8 R{6,18}
   + 8 R{6,19} + 8 R{6,20} + 8 R{6,21} + 8 R{6,22} + 8 R{6,23} + 8 R{6,24}
   + 8 R{6,25} + 8 R{6,26} + 8 R{6,27} + 8 R{6,28} + 8 R{6,29} + 8 R{6,30}
   + 8 R{6,31} + 8 R{6,33} + 8 R{6,34} + 8 R{6,35} + 8 R{6,36} + 8 R{6,37}
   + 8 R{6,38} + 8 R{6,39} + 8 R{6,40} + 8 R{6,41} + 8 R{6,42} + 8 R{6,43}
   + 8 R{6,44} + 8 R{6,45} + 8 R{6,46} + 8 R{6,47} + 8 R{6,48} + 8 R{6,49}
   <= 8
 R2_56: 6 R{2,0} + 6 R{2,1} + 6 R{2,6} + 6 R{2,7} + 6 R{2,8} + 6 R{2,10}
   + 6 R{2,11} + 6 R{2,12} + 6 R{2,13} + 6 R{2,15} + 6 R{2,16} + 6 R{2,18}
   + 6 R{2,19} + 6 R{2,20} + 6 R{2,21} + 6 R{2,22} + 6 R{2,23} + 6 R{2,24}
   + 6 R{2,25} + 6 R{4,3} + 6 R{4,4} + 6 R{4,6} + 6 R{4,7} + 6 R{4,9}
   + 6 R{4,10} + 6 R{4,13} + 6 R{4,15} + 6 R{4,17} + 6 R{4,20} + 6 R{4,26}
   + 6 R{4,27} + 6 R{4,29} + 6 R{4,31} + 6 R{4,32} <= 6
 R2_57: <= 0
 R2_58: <= 0
 R2_59: 10 R{2,7} + 10 R{2,8} + 10 R{2,11} + 10 R{2,12} + 10 R{2,13}
   + 10 R{2,15} + 10 R{2,16} + 10 R{2,18} + 10 R{2,22} + 10 R{2,25}
   + 10 R{3,11} + 10 R{5,22} + 10 R{5,25} <= 10
 R2_60: <= 0
 R2_61: 9 R{0,15} + 9 R{0,17} + 9 R{3,11} + 9 R{3,12} + 9 R{3,15}
   + 9 R{3,17} + 9 R{5,22} + 9 R{5,25} + 9 R{6,38} <= 9
 R2_62: 10 R{6,7} + 10 R{6,28} + 10 R{6,38} <= 10
 R2_63: <= 0
 R2_64: <= 0
 R2_65: 5 R{2,0} + 5 R{2,1} + 5 R{2,6} + 5 R{2,7} + 5 R{2,9} + 5 R{2,19}
   + 5 R{2,20} + 5 R{2,21} + 5 R{2,23} + 5 R{6,1} + 5 R{6,2} + 5 R{6,3}
   + 5 R{6,4} + 5 R{6,5} + 5 R{6,6} + 5 R{6,8} + 5 R{6,9} + 5 R{6,10}
   + 5 R{6,11} + 5 R{6,12} + 5 R{6,13} + 5 R{6,14} + 5 R{6,15} + 5 R{6,16}
   + 5 R{6,17} + 5 R{6,18} + 5 R{6,19} + 5 R{6,20} + 5 R{6,22} + 5 R{6,23}
   + 5 R{6,24} + 5 R{6,25} + 5 R{6,26} + 5 R{6,27} + 5 R{6,29} + 5 R{6,30}
   + 5 R{6,31} + 5 R{6,32} + 5 R{6,33} + 5 R{6,34} + 5 R{6,35} + 5 R{6,36}
   + 5 R{6,37} + 5 R{6,39} + 5 R{6,40} + 5 R{6,41} + 5 R{6,42} + 5 R{6,43}
   + 5 R{6,44} + 5 R{6,46} + 5 R{6,47} + 5 R{6,48} + 5 R{6,49} <= 5
 R2_66: 7 R{6,1} + 7 R{6,2} + 7 R{6,3} + 7 R{6,4} + 7 R{6,5} + 7 R{6,6}
   + 7 R{6,7} + 7 R{6,8} + 7 R{6,9} + 7 R{6,15} + 7 R{6,17} + 7 R{6,18}
   + 7 R{6,19} + 7 R{6,21} + 7 R{6,22} + 7 R{6,23} + 7 R{6,24} + 7 R{6,26}
   + 7 R{6,27} + 7 R{6,28} + 7 R{6,29} + 7 R{6,31} + 7 R{6,33} + 7 R{6,36}
   + 7 R{6,38} + 7 R{6,39} + 7 R{6,40} + 7 R{6,41} + 7 R{6,42} + 7 R{6,44}
   + 7 R{6,45} + 7 R{6,47} + 7 R{6,48} <= 7
 R2_67: 3 R{0,1} + 3 R{0,2} + 3 R{0,7} + 3 R{0,8} + 3 R{0,9} + 3 R{0,14}
   + 3 R{0,17} + 3 R{2,0} + 3 R{2,1} + 3 R{2,6} + 3 R{2,7} + 3 R{2,8}
   + 3 R{2,9} + 3 R{2,10} + 3 R{2,11} + 3 R{2,12} + 3 R{2,13} + 3 R{2,15}
   + 3 R{2,16} + 3 R{2,19} + 3 R{2,20} + 3 R{2,21} + 3 R{2,22} + 3 R{2,23}
   + 3 R{2,24} + 3 R{2,25} + 3 R{4,5} + 3 R{4,12} + 3 R{6,16} <= 3
 R2_68: 6 R{1,1} + 6 R{1,2} + 6 R{1,3} + 6 R{1,4} + 6 R{1,7} + 6 R{1,8}
   + 6 R{1,9} + 6 R{1,10} + 6 R{1,11} + 6 R{1,12} + 6 R{1,15} + 6 R{1,18}
   + 6 R{1,19} + 6 R{1,23} + 6 R{1,26} + 6 R{1,28} + 6 R{1,29} + 6 R{6,23}
   + 6 R{6,26} <= 6
 R2_69: 7 R{2,21} + 7 R{4,1} + 7 R{4,2} + 7 R{4,3} + 7 R{4,4} + 7 R{4,6}
   + 7 R{4,7} + 7 R{4,8} + 7 R{4,9} + 7 R{4,10} + 7 R{4,11} + 7 R{4,13}
   + 7 R{4,14} + 7 R{4,15} + 7 R{4,16} + 7 R{4,17} + 7 R{4,18} + 7 R{4,19}
   + 7 R{4,20} + 7 R{4,21} + 7 R{4,22} + 7 R{4,23} + 7 R{4,24} + 7 R{4,25}
   + 7 R{4,26} + 7 R{4,27} + 7 R{4,28} + 7 R{4,29} + 7 R{4,30} + 7 R{4,31}
   + 7 R{4,32} <= 7
 R2_70: 11 R{1,1} + 11 R{1,2} + 11 R{1,3} + 11 R{1,5} + 11 R{1,6}
   + 11 R{1,7} + 11 R{1,8} + 11 R{1,9} + 11 R{1,10} + 11 R{1,12}
   + 11 R{1,15} + 11 R{1,18} + 11 R{1,26} + 11 R{1,28} <= 11
 R2_71: 7 R{1,7} + 7 R{1,11} + 7 R{1,18} + 7 R{1,23} + 7 R{1,26}
   + 7 R{1,28} + 7 R{1,29} + 7 R{6,1} + 7 R{6,2} + 7 R{6,3} + 7 R{6,4}
   + 7 R{6,5} + 7 R{6,6} + 7 R{6,7} + 7 R{6,8} + 7 R{6,9} + 7 R{6,10}
   + 7 R{6,11} + 7 R{6,12} + 7 R{6,13} + 7 R{6,14} + 7 R{6,15} + 7 R{6,16}
   + 7 R{6,18} + 7 R{6,19} + 7 R{6,20} + 7 R{6,21} + 7 R{6,25} + 7 R{6,28}
   + 7 R{6,29} + 7 R{6,31} + 7 R{6,33} + 7 R{6,34} + 7 R{6,36} + 7 R{6,37}
   + 7 R{6,38} + 7 R{6,39} + 7 R{6,40} + 7 R{6,41} + 7 R{6,43} + 7 R{6,45}
   + 7 R{6,46} + 7 R{6,47} + 7 R{6,49} <= 7
 R2_72: <= 0
 R2_73: <= 0
 R2_74: 5 R{5,1} + 5 R{5,3} + 5 R{5,4} + 5 R{5,5} + 5 R{5,6} + 5 R{5,7}
   + 5 R{5,8} + 5 R{5,9} + 5 R{5,10} + 5 R{5,11} + 5 R{5,12} + 5 R{5,13}
   + 5 R{5,14} + 5 R{5,15} + 5 R{5,16} + 5 R{5,17} + 5 R{5,18} + 5 R{5,19}
   + 5 R{5,20} + 5 R{5,21} + 5 R{5,22} + 5 R{5,23} + 5 R{5,24} + 5 R{5,25}
   <= 5
 R2_75: 8 R{6,1} + 8 R{6,2} + 8 R{6,3} + 8 R{6,4} + 8 R{6,5} + 8 R{6,6}
   + 8 R{6,7} + 8 R{6,9} + 8 R{6,10} + 8 R{6,11} + 8 R{6,12} + 8 R{6,13}
   + 8 R{6,14} + 8 R{6,16} + 8 R{6,17} + 8 R{6,18} + 8 R{6,20} + 8 R{6,21}
   + 8 R{6,22} + 8 R{6,23} + 8 R{6,24} + 8 R{6,25} + 8 R{6,26} + 8 R{6,27}
   + 8 R{6,30} + 8 R{6,32} + 8 R{6,34} + 8 R{6,35} + 8 R{6,37} + 8 R{6,38}
   + 8 R{6,39} + 8 R{6,40} + 8 R{6,41} + 8 R{6,42} + 8 R{6,43} + 8 R{6,44}
   + 8 R{6,45} + 8 R{6,46} + 8 R{6,47} + 8 R{6,48} + 8 R{6,49} <= 8
 R2_76: 12 R{1,26} + 12 R{1,28} + 12 R{2,3} + 12 R{2,4} + 12 R{2,5}
   + 12 R{2,14} + 12 R{2,17} + 12 R{5,22} + 12 R{5,25} + 12 R{6,9}
   + 12 R{6,22} + 12 R{6,41} <= 12
 R2_77: 7 R{0,5} + 7 R{0,6} + 7 R{0,10} + 7 R{0,12} + 7 R{0,13} + 7 R{0,18}
   + 7 R{1,2} + 7 R{1,3} + 7 R{1,5} + 7 R{1,6} + 7 R{1,7} + 7 R{1,10}
   + 7 R{1,11} + 7 R{1,12} + 7 R{1,13} + 7 R{1,14} + 7 R{1,15} + 7 R{1,16}
   + 7 R{1,17} + 7 R{1,19} + 7 R{1,20} + 7 R{1,21} + 7 R{1,22} + 7 R{1,24}
   + 7 R{1,25} + 7 R{1,26} + 7 R{1,27} + 7 R{1,29} + 7 R{1,30} + 7 R{2,4}
   + 7 R{2,14} + 7 R{2,17} + 7 R{3,2} + 7 R{3,5} + 7 R{3,8} + 7 R{3,10}
   + 7 R{3,11} + 7 R{3,12} + 7 R{3,13} + 7 R{3,14} + 7 R{3,15} + 7 R{3,16}
   + 7 R{3,17} + 7 R{3,18} + 7 R{3,19} + 7 R{4,2} + 7 R{4,3} + 7 R{4,16}
   + 7 R{4,21} + 7 R{5,2} + 7 R{6,2} + 7 R{6,3} + 7 R{6,10} + 7 R{6,11}
   + 7 R{6,12} + 7 R{6,13} + 7 R{6,14} + 7 R{6,16} + 7 R{6,17} + 7 R{6,20}
   + 7 R{6,23} + 7 R{6,25} + 7 R{6,26} + 7 R{6,28} + 7 R{6,30} + 7 R{6,32}
   + 7 R{6,35} + 7 R{6,37} + 7 R{6,39} + 7 R{6,43} + 7 R{6,45} + 7 R{6,46}
   + 7 R{6,49} <= 7
Bounds
End
